Route #1: 42 15 43 14 44 38 86 16 61 85 91 100
Route #2: 80 24 29 79 78 34 35 65 71 66 20 9 81 33 51
Route #3: 73 72 74 75 56 39 67 23 25 55 22 41 57 2
Route #4: 60 84 17 45 46 47 36 49 64 11 63 90 32 10 30 70 1
Route #5: 69 31 7 88 62 19 48 82 8 83 5 18
Route #6: 58 40 21 4 54 68 3 77 76 50 12 26
Route #7: 94 95 87 97 92 37 98 93 59 99 96 6 89
Route #8: 28 27 52 13 53
Cost 909.8034293270025